220,28
43,245
281,58
146,82
376,53
13,367
328,334
329,293
90,145
163,159
6,281
388,353
288,365
382,103
242,124
178,37
32,281
154,317
352,49
154,263
214,170
175,108
34,59
296,157
188,137
372,282
25,301
338,192
81,37
201,13
163,211
284,305
17,100
163,366
198,268
249,35
200,198
151,236
23,254
222,305
37,165
103,364
351,58
332,66
111,44
333,238
151,9
296,87
255,322
376,231
